proyfinal/src/viki/013/andrea/andrea-localstore/experimentInOfficeAgust.take6/worker_2/9df34595-3171-4e2e-ae11-f7dae9428aac.als.cnf.out
Reading from standard input... Use '--help' for help.
============================[ Problem Statistics ]=============================
|                                                                             |
|  Number of variables:         87638                                         |
|  Number of clauses:          161767                                         |
|  Parse time:                   0.03 s                                       |
|                                                                             |
============================[ Search Statistics ]==============================
| Conflicts |          ORIGINAL         |          LEARNT          | Progress |
|           |    Vars  Clauses Literals |    Limit  Clauses Lit/Cl |          |
===============================================================================
|       100 |   62848   107142   267146 |    39285      100     10 | 28.287 % |
|       250 |   62790   107142   267146 |    43213      248     11 | 28.353 % |
|       475 |   62790   106910   266595 |    47535      472     20 | 28.353 % |
|       812 |   62640   106310   265175 |    52288      799     45 | 28.524 % |
|      1318 |   62610   106190   264891 |    57517     1301     69 | 28.558 % |
|      2077 |   62404   106070   264607 |    63269     2054     71 | 28.794 % |
|      3216 |   62404   105366   262917 |    69596     3097     95 | 28.793 % |
|      4924 |   62396   105334   262829 |    76556     4741     90 | 28.803 % |
|      7486 |   62396   105334   262829 |    84211     7303    104 | 28.803 % |
|     11330 |   62396   105334   262829 |    92632    11147     96 | 28.803 % |
|     17096 |   55479    83326   208787 |   101896    15744     88 | 36.695 % |
===============================================================================
restarts              : 72
conflicts             : 20677          (7591 /sec)
decisions             : 61540          (0.00 % random) (22592 /sec)
propagations          : 25371318       (9314202 /sec)
conflict literals     : 1614905        (47.87 % deleted)
Memory used           : 40.52 MB
CPU time              : 2.72394 s

UNSATISFIABLE
